\Problem name: compact

Minimize
OBJROW: C
Subject To
ord(0,1):  x(0,0) - x(0,1) >= 7
ord(0,2):  - x(0,0) + x(0,2) >= 8
ord(1,1):  x(1,0) - x(1,2) >= 6
ord(1,2):  - x(1,0) + x(1,1) >= 7
ord(2,1):  - x(2,1) + x(2,2) >= 9
ord(2,2):  x(2,0) - x(2,2) >= 2
ord(3,1):  x(3,0) - x(3,2) >= 4
ord(3,2):  - x(3,0) + x(3,1) >= 3
triangle2(0,1,0):  y(0,1,0) + y(1,0,0) = 1
triangle2(0,1,1):  y(0,1,1) + y(1,0,1) = 1
triangle2(0,1,2):  y(0,1,2) + y(1,0,2) = 1
triangle2(0,2,0):  y(0,2,0) + y(2,0,0) = 1
triangle2(0,2,1):  y(0,2,1) + y(2,0,1) = 1
triangle2(0,2,2):  y(0,2,2) + y(2,0,2) = 1
triangle2(0,3,0):  y(0,3,0) + y(3,0,0) = 1
triangle2(0,3,1):  y(0,3,1) + y(3,0,1) = 1
triangle2(0,3,2):  y(0,3,2) + y(3,0,2) = 1
triangle2(1,2,0):  y(1,2,0) + y(2,1,0) = 1
triangle2(1,2,1):  y(1,2,1) + y(2,1,1) = 1
triangle2(1,2,2):  y(1,2,2) + y(2,1,2) = 1
triangle2(1,3,0):  y(1,3,0) + y(3,1,0) = 1
triangle2(1,3,1):  y(1,3,1) + y(3,1,1) = 1
triangle2(1,3,2):  y(1,3,2) + y(3,1,2) = 1
triangle2(2,3,0):  y(2,3,0) + y(3,2,0) = 1
triangle2(2,3,1):  y(2,3,1) + y(3,2,1) = 1
triangle2(2,3,2):  y(2,3,2) + y(3,2,2) = 1
MCLinV(0,1,0):  x(0,0) - v(0,1,0) - x(1,0) = 7
MCLinV(1,0,0):  - x(0,0) - v(1,0,0) + x(1,0) = 8
MCLin1(0,1,0):  u(0,1,0) >= -0
MCLin2(0,1,0):  -53 y(1,0,0) - u(0,1,0) <= -0
MCLin3(0,1,0):  46 y(1,0,0) + v(0,1,0) - u(0,1,0) <= 46
MCLin4(0,1,0):  46 y(1,0,0) - u(0,1,0) >= -0
MCLin5(0,1,0):  -53 y(1,0,0) + v(0,1,0) - u(0,1,0) >= -53
MCLin6(1,0,0):  u(1,0,0) >= -0
MCLin7(1,0,0):  -61 y(0,1,0) - u(1,0,0) <= -0
MCLin8(1,0,0):  38 y(0,1,0) + v(1,0,0) - u(1,0,0) <= 38
MCLin9(1,0,0):  38 y(0,1,0) - u(1,0,0) >= -0
MCLin10(1,0,0):  -61 y(0,1,0) + v(1,0,0) - u(1,0,0) >= -61
MCLinV(0,1,1):  x(0,1) - v(0,1,1) - x(1,1) = 9
MCLinV(1,0,1):  - x(0,1) - v(1,0,1) + x(1,1) = 7
MCLin1(0,1,1):  u(0,1,1) >= -0
MCLin2(0,1,1):  -69 y(1,0,1) - u(0,1,1) <= -0
MCLin3(0,1,1):  30 y(1,0,1) + v(0,1,1) - u(0,1,1) <= 30
MCLin4(0,1,1):  30 y(1,0,1) - u(0,1,1) >= -0
MCLin5(0,1,1):  -69 y(1,0,1) + v(0,1,1) - u(0,1,1) >= -69
MCLin6(1,0,1):  u(1,0,1) >= -0
MCLin7(1,0,1):  -46 y(0,1,1) - u(1,0,1) <= -0
MCLin8(1,0,1):  53 y(0,1,1) + v(1,0,1) - u(1,0,1) <= 53
MCLin9(1,0,1):  53 y(0,1,1) - u(1,0,1) >= -0
MCLin10(1,0,1):  -46 y(0,1,1) + v(1,0,1) - u(1,0,1) >= -46
MCLinV(0,1,2):  x(0,2) - v(0,1,2) - x(1,2) = 6
MCLinV(1,0,2):  - x(0,2) - v(1,0,2) + x(1,2) = 2
MCLin1(0,1,2):  u(0,1,2) >= -0
MCLin2(0,1,2):  -38 y(1,0,2) - u(0,1,2) <= -0
MCLin3(0,1,2):  61 y(1,0,2) + v(0,1,2) - u(0,1,2) <= 61
MCLin4(0,1,2):  61 y(1,0,2) - u(0,1,2) >= -0
MCLin5(0,1,2):  -38 y(1,0,2) + v(0,1,2) - u(0,1,2) >= -38
MCLin6(1,0,2):  u(1,0,2) >= -0
MCLin7(1,0,2):  -69 y(0,1,2) - u(1,0,2) <= -0
MCLin8(1,0,2):  30 y(0,1,2) + v(1,0,2) - u(1,0,2) <= 30
MCLin9(1,0,2):  30 y(0,1,2) - u(1,0,2) >= -0
MCLin10(1,0,2):  -69 y(0,1,2) + v(1,0,2) - u(1,0,2) >= -69
MCLinV(0,2,0):  x(0,0) - v(0,2,0) - x(2,0) = 7
MCLinV(2,0,0):  - x(0,0) - v(2,0,0) + x(2,0) = 8
MCLin1(0,2,0):  u(0,2,0) >= -0
MCLin2(0,2,0):  -62 y(2,0,0) - u(0,2,0) <= -0
MCLin3(0,2,0):  41 y(2,0,0) + v(0,2,0) - u(0,2,0) <= 41
MCLin4(0,2,0):  41 y(2,0,0) - u(0,2,0) >= -0
MCLin5(0,2,0):  -62 y(2,0,0) + v(0,2,0) - u(0,2,0) >= -62
MCLin6(2,0,0):  u(2,0,0) >= -0
MCLin7(2,0,0):  -56 y(0,2,0) - u(2,0,0) <= -0
MCLin8(2,0,0):  47 y(0,2,0) + v(2,0,0) - u(2,0,0) <= 47
MCLin9(2,0,0):  47 y(0,2,0) - u(2,0,0) >= -0
MCLin10(2,0,0):  -56 y(0,2,0) + v(2,0,0) - u(2,0,0) >= -56
MCLinV(0,2,1):  x(0,1) - v(0,2,1) - x(2,1) = 9
MCLinV(2,0,1):  - x(0,1) - v(2,0,1) + x(2,1) = 7
MCLin1(0,2,1):  u(0,2,1) >= -0
MCLin2(0,2,1):  -60 y(2,0,1) - u(0,2,1) <= -0
MCLin3(0,2,1):  43 y(2,0,1) + v(0,2,1) - u(0,2,1) <= 43
MCLin4(0,2,1):  43 y(2,0,1) - u(0,2,1) >= -0
MCLin5(0,2,1):  -60 y(2,0,1) + v(0,2,1) - u(0,2,1) >= -60
MCLin6(2,0,1):  u(2,0,1) >= -0
MCLin7(2,0,1):  -59 y(0,2,1) - u(2,0,1) <= -0
MCLin8(2,0,1):  44 y(0,2,1) + v(2,0,1) - u(2,0,1) <= 44
MCLin9(2,0,1):  44 y(0,2,1) - u(2,0,1) >= -0
MCLin10(2,0,1):  -59 y(0,2,1) + v(2,0,1) - u(2,0,1) >= -59
MCLinV(0,2,2):  x(0,2) - v(0,2,2) - x(2,2) = 2
MCLinV(2,0,2):  - x(0,2) - v(2,0,2) + x(2,2) = 2
MCLin1(0,2,2):  u(0,2,2) >= -0
MCLin2(0,2,2):  -47 y(2,0,2) - u(0,2,2) <= -0
MCLin3(0,2,2):  56 y(2,0,2) + v(0,2,2) - u(0,2,2) <= 56
MCLin4(0,2,2):  56 y(2,0,2) - u(0,2,2) >= -0
MCLin5(0,2,2):  -47 y(2,0,2) + v(0,2,2) - u(0,2,2) >= -47
MCLin6(2,0,2):  u(2,0,2) >= -0
MCLin7(2,0,2):  -60 y(0,2,2) - u(2,0,2) <= -0
MCLin8(2,0,2):  43 y(0,2,2) + v(2,0,2) - u(2,0,2) <= 43
MCLin9(2,0,2):  43 y(0,2,2) - u(2,0,2) >= -0
MCLin10(2,0,2):  -60 y(0,2,2) + v(2,0,2) - u(2,0,2) >= -60
MCLinV(0,3,0):  x(0,0) - v(0,3,0) - x(3,0) = 3
MCLinV(3,0,0):  - x(0,0) - v(3,0,0) + x(3,0) = 8
MCLin1(0,3,0):  u(0,3,0) >= -0
MCLin2(0,3,0):  -57 y(3,0,0) - u(0,3,0) <= -0
MCLin3(0,3,0):  52 y(3,0,0) + v(0,3,0) - u(0,3,0) <= 52
MCLin4(0,3,0):  52 y(3,0,0) - u(0,3,0) >= -0
MCLin5(0,3,0):  -57 y(3,0,0) + v(0,3,0) - u(0,3,0) >= -57
MCLin6(3,0,0):  u(3,0,0) >= -0
MCLin7(3,0,0):  -63 y(0,3,0) - u(3,0,0) <= -0
MCLin8(3,0,0):  46 y(0,3,0) + v(3,0,0) - u(3,0,0) <= 46
MCLin9(3,0,0):  46 y(0,3,0) - u(3,0,0) >= -0
MCLin10(3,0,0):  -63 y(0,3,0) + v(3,0,0) - u(3,0,0) >= -63
MCLinV(0,3,1):  x(0,1) - v(0,3,1) - x(3,1) = 5
MCLinV(3,0,1):  - x(0,1) - v(3,0,1) + x(3,1) = 7
MCLin1(0,3,1):  u(0,3,1) >= -0
MCLin2(0,3,1):  -69 y(3,0,1) - u(0,3,1) <= -0
MCLin3(0,3,1):  40 y(3,0,1) + v(0,3,1) - u(0,3,1) <= 40
MCLin4(0,3,1):  40 y(3,0,1) - u(0,3,1) >= -0
MCLin5(0,3,1):  -69 y(3,0,1) + v(0,3,1) - u(0,3,1) >= -69
MCLin6(3,0,1):  u(3,0,1) >= -0
MCLin7(3,0,1):  -52 y(0,3,1) - u(3,0,1) <= -0
MCLin8(3,0,1):  57 y(0,3,1) + v(3,0,1) - u(3,0,1) <= 57
MCLin9(3,0,1):  57 y(0,3,1) - u(3,0,1) >= -0
MCLin10(3,0,1):  -52 y(0,3,1) + v(3,0,1) - u(3,0,1) >= -52
MCLinV(0,3,2):  x(0,2) - v(0,3,2) - x(3,2) = 4
MCLinV(3,0,2):  - x(0,2) - v(3,0,2) + x(3,2) = 2
MCLin1(0,3,2):  u(0,3,2) >= -0
MCLin2(0,3,2):  -46 y(3,0,2) - u(0,3,2) <= -0
MCLin3(0,3,2):  63 y(3,0,2) + v(0,3,2) - u(0,3,2) <= 63
MCLin4(0,3,2):  63 y(3,0,2) - u(0,3,2) >= -0
MCLin5(0,3,2):  -46 y(3,0,2) + v(0,3,2) - u(0,3,2) >= -46
MCLin6(3,0,2):  u(3,0,2) >= -0
MCLin7(3,0,2):  -69 y(0,3,2) - u(3,0,2) <= -0
MCLin8(3,0,2):  40 y(0,3,2) + v(3,0,2) - u(3,0,2) <= 40
MCLin9(3,0,2):  40 y(0,3,2) - u(3,0,2) >= -0
MCLin10(3,0,2):  -69 y(0,3,2) + v(3,0,2) - u(3,0,2) >= -69
MCLinV(1,2,0):  x(1,0) - v(1,2,0) - x(2,0) = 7
MCLinV(2,1,0):  - x(1,0) - v(2,1,0) + x(2,0) = 7
MCLin1(1,2,0):  u(1,2,0) >= -0
MCLin2(1,2,0):  -63 y(2,1,0) - u(1,2,0) <= -0
MCLin3(1,2,0):  35 y(2,1,0) + v(1,2,0) - u(1,2,0) <= 35
MCLin4(1,2,0):  35 y(2,1,0) - u(1,2,0) >= -0
MCLin5(1,2,0):  -63 y(2,1,0) + v(1,2,0) - u(1,2,0) >= -63
MCLin6(2,1,0):  u(2,1,0) >= -0
MCLin7(2,1,0):  -49 y(1,2,0) - u(2,1,0) <= -0
MCLin8(2,1,0):  49 y(1,2,0) + v(2,1,0) - u(2,1,0) <= 49
MCLin9(2,1,0):  49 y(1,2,0) - u(2,1,0) >= -0
MCLin10(2,1,0):  -49 y(1,2,0) + v(2,1,0) - u(2,1,0) >= -49
MCLinV(1,2,1):  x(1,1) - v(1,2,1) - x(2,1) = 9
MCLinV(2,1,1):  - x(1,1) - v(2,1,1) + x(2,1) = 9
MCLin1(1,2,1):  u(1,2,1) >= -0
MCLin2(1,2,1):  -47 y(2,1,1) - u(1,2,1) <= -0
MCLin3(1,2,1):  51 y(2,1,1) + v(1,2,1) - u(1,2,1) <= 51
MCLin4(1,2,1):  51 y(2,1,1) - u(1,2,1) >= -0
MCLin5(1,2,1):  -47 y(2,1,1) + v(1,2,1) - u(1,2,1) >= -47
MCLin6(2,1,1):  u(2,1,1) >= -0
MCLin7(2,1,1):  -69 y(1,2,1) - u(2,1,1) <= -0
MCLin8(2,1,1):  29 y(1,2,1) + v(2,1,1) - u(2,1,1) <= 29
MCLin9(2,1,1):  29 y(1,2,1) - u(2,1,1) >= -0
MCLin10(2,1,1):  -69 y(1,2,1) + v(2,1,1) - u(2,1,1) >= -69
MCLinV(1,2,2):  x(1,2) - v(1,2,2) - x(2,2) = 2
MCLinV(2,1,2):  - x(1,2) - v(2,1,2) + x(2,2) = 6
MCLin1(1,2,2):  u(1,2,2) >= -0
MCLin2(1,2,2):  -62 y(2,1,2) - u(1,2,2) <= -0
MCLin3(1,2,2):  36 y(2,1,2) + v(1,2,2) - u(1,2,2) <= 36
MCLin4(1,2,2):  36 y(2,1,2) - u(1,2,2) >= -0
MCLin5(1,2,2):  -62 y(2,1,2) + v(1,2,2) - u(1,2,2) >= -62
MCLin6(2,1,2):  u(2,1,2) >= -0
MCLin7(2,1,2):  -44 y(1,2,2) - u(2,1,2) <= -0
MCLin8(2,1,2):  54 y(1,2,2) + v(2,1,2) - u(2,1,2) <= 54
MCLin9(2,1,2):  54 y(1,2,2) - u(2,1,2) >= -0
MCLin10(2,1,2):  -44 y(1,2,2) + v(2,1,2) - u(2,1,2) >= -44
MCLinV(1,3,0):  x(1,0) - v(1,3,0) - x(3,0) = 3
MCLinV(3,1,0):  - x(1,0) - v(3,1,0) + x(3,0) = 7
MCLin1(1,3,0):  u(1,3,0) >= -0
MCLin2(1,3,0):  -58 y(3,1,0) - u(1,3,0) <= -0
MCLin3(1,3,0):  46 y(3,1,0) + v(1,3,0) - u(1,3,0) <= 46
MCLin4(1,3,0):  46 y(3,1,0) - u(1,3,0) >= -0
MCLin5(1,3,0):  -58 y(3,1,0) + v(1,3,0) - u(1,3,0) >= -58
MCLin6(3,1,0):  u(3,1,0) >= -0
MCLin7(3,1,0):  -56 y(1,3,0) - u(3,1,0) <= -0
MCLin8(3,1,0):  48 y(1,3,0) + v(3,1,0) - u(3,1,0) <= 48
MCLin9(3,1,0):  48 y(1,3,0) - u(3,1,0) >= -0
MCLin10(3,1,0):  -56 y(1,3,0) + v(3,1,0) - u(3,1,0) >= -56
MCLinV(1,3,1):  x(1,1) - v(1,3,1) - x(3,1) = 5
MCLinV(3,1,1):  - x(1,1) - v(3,1,1) + x(3,1) = 9
MCLin1(1,3,1):  u(1,3,1) >= -0
MCLin2(1,3,1):  -56 y(3,1,1) - u(1,3,1) <= -0
MCLin3(1,3,1):  48 y(3,1,1) + v(1,3,1) - u(1,3,1) <= 48
MCLin4(1,3,1):  48 y(3,1,1) - u(1,3,1) >= -0
MCLin5(1,3,1):  -56 y(3,1,1) + v(1,3,1) - u(1,3,1) >= -56
MCLin6(3,1,1):  u(3,1,1) >= -0
MCLin7(3,1,1):  -62 y(1,3,1) - u(3,1,1) <= -0
MCLin8(3,1,1):  42 y(1,3,1) + v(3,1,1) - u(3,1,1) <= 42
MCLin9(3,1,1):  42 y(1,3,1) - u(3,1,1) >= -0
MCLin10(3,1,1):  -62 y(1,3,1) + v(3,1,1) - u(3,1,1) >= -62
MCLinV(1,3,2):  x(1,2) - v(1,3,2) - x(3,2) = 4
MCLinV(3,1,2):  - x(1,2) - v(3,1,2) + x(3,2) = 6
MCLin1(1,3,2):  u(1,3,2) >= -0
MCLin2(1,3,2):  -61 y(3,1,2) - u(1,3,2) <= -0
MCLin3(1,3,2):  43 y(3,1,2) + v(1,3,2) - u(1,3,2) <= 43
MCLin4(1,3,2):  43 y(3,1,2) - u(1,3,2) >= -0
MCLin5(1,3,2):  -61 y(3,1,2) + v(1,3,2) - u(1,3,2) >= -61
MCLin6(3,1,2):  u(3,1,2) >= -0
MCLin7(3,1,2):  -53 y(1,3,2) - u(3,1,2) <= -0
MCLin8(3,1,2):  51 y(1,3,2) + v(3,1,2) - u(3,1,2) <= 51
MCLin9(3,1,2):  51 y(1,3,2) - u(3,1,2) >= -0
MCLin10(3,1,2):  -53 y(1,3,2) + v(3,1,2) - u(3,1,2) >= -53
MCLinV(2,3,0):  x(2,0) - v(2,3,0) - x(3,0) = 3
MCLinV(3,2,0):  - x(2,0) - v(3,2,0) + x(3,0) = 7
MCLin1(2,3,0):  u(2,3,0) >= -0
MCLin2(2,3,0):  -53 y(3,2,0) - u(2,3,0) <= -0
MCLin3(2,3,0):  55 y(3,2,0) + v(2,3,0) - u(2,3,0) <= 55
MCLin4(2,3,0):  55 y(3,2,0) - u(2,3,0) >= -0
MCLin5(2,3,0):  -53 y(3,2,0) + v(2,3,0) - u(2,3,0) >= -53
MCLin6(3,2,0):  u(3,2,0) >= -0
MCLin7(3,2,0):  -65 y(2,3,0) - u(3,2,0) <= -0
MCLin8(3,2,0):  43 y(2,3,0) + v(3,2,0) - u(3,2,0) <= 43
MCLin9(3,2,0):  43 y(2,3,0) - u(3,2,0) >= -0
MCLin10(3,2,0):  -65 y(2,3,0) + v(3,2,0) - u(3,2,0) >= -65
MCLinV(2,3,1):  x(2,1) - v(2,3,1) - x(3,1) = 5
MCLinV(3,2,1):  - x(2,1) - v(3,2,1) + x(3,1) = 9
MCLin1(2,3,1):  u(2,3,1) >= -0
MCLin2(2,3,1):  -69 y(3,2,1) - u(2,3,1) <= -0
MCLin3(2,3,1):  39 y(3,2,1) + v(2,3,1) - u(2,3,1) <= 39
MCLin4(2,3,1):  39 y(3,2,1) - u(2,3,1) >= -0
MCLin5(2,3,1):  -69 y(3,2,1) + v(2,3,1) - u(2,3,1) >= -69
MCLin6(3,2,1):  u(3,2,1) >= -0
MCLin7(3,2,1):  -53 y(2,3,1) - u(3,2,1) <= -0
MCLin8(3,2,1):  55 y(2,3,1) + v(3,2,1) - u(3,2,1) <= 55
MCLin9(3,2,1):  55 y(2,3,1) - u(3,2,1) >= -0
MCLin10(3,2,1):  -53 y(2,3,1) + v(3,2,1) - u(3,2,1) >= -53
MCLinV(2,3,2):  x(2,2) - v(2,3,2) - x(3,2) = 4
MCLinV(3,2,2):  - x(2,2) - v(3,2,2) + x(3,2) = 2
MCLin1(2,3,2):  u(2,3,2) >= -0
MCLin2(2,3,2):  -52 y(3,2,2) - u(2,3,2) <= -0
MCLin3(2,3,2):  56 y(3,2,2) + v(2,3,2) - u(2,3,2) <= 56
MCLin4(2,3,2):  56 y(3,2,2) - u(2,3,2) >= -0
MCLin5(2,3,2):  -52 y(3,2,2) + v(2,3,2) - u(2,3,2) >= -52
MCLin6(3,2,2):  u(3,2,2) >= -0
MCLin7(3,2,2):  -62 y(2,3,2) - u(3,2,2) <= -0
MCLin8(3,2,2):  46 y(2,3,2) + v(3,2,2) - u(3,2,2) <= 46
MCLin9(3,2,2):  46 y(2,3,2) - u(3,2,2) >= -0
MCLin10(3,2,2):  -62 y(2,3,2) + v(3,2,2) - u(3,2,2) >= -62
makespan(0):  C - x(0,2) >= 2
makespan(1):  C - x(1,1) >= 9
makespan(2):  C - x(2,0) >= 7
makespan(3):  C - x(3,1) >= 5
cut_clique_0(0123,0):  0.02510 x(0,0) + 0.02197 x(1,0) + 0.02197 x(2,0) + 0.00288 x(3,0) >= 1
cut_clique_0(013,0):  0.04862 x(0,0) + 0.04255 x(1,0) + 0.00536 x(3,0) >= 1
cut_clique_0(012,0):  0.02809 x(0,0) + 0.01975 x(1,0) + 0.02458 x(2,0) >= 1
cut_clique_0(023,0):  0.02073 x(0,0) + 0.05699 x(2,0) >= 1
cut_clique_0(123,0):  0.01681 x(1,0) + 0.06162 x(2,0) + 0.00490 x(3,0) >= 1
cut_clique_0(0123,1):  0.11111 x(0,1) + 0.14286 x(2,1) >= 1
cut_clique_0(023,1):  0.11111 x(0,1) + 0.14286 x(2,1) >= 1
cut_clique_0(012,1):  0.11111 x(0,1) + 0.14286 x(2,1) >= 1
cut_clique_0(123,1):  0.01852 x(2,1) + 0.11111 x(3,1) >= 1
cut_clique_0(0123,2):  0.25000 x(1,2) + 0.16667 x(3,2) >= 1
cut_clique_0(123,2):  0.25000 x(1,2) + 0.16667 x(3,2) >= 1
cut_clique_0(013,2):  0.25000 x(1,2) + 0.16667 x(3,2) >= 1
cut_clique_1(0123,1):  0.02108 x(0,1) + 0.02711 x(1,1) + 0.02711 x(2,1) + 0.01506 x(3,1) >= 1
cut_clique_1(012,1):  0.01277 x(0,1) + 0.05532 x(1,1) + 0.01641 x(2,1) >= 1
cut_clique_0:  0.01013 x(0,0) + 0.00872 x(1,0) + 0.00886 x(2,0) + 0.01112 x(0,1) + 0.01761 x(1,1) + 0.01429 x(2,1) + 0.00886 x(3,1) >= 1
cut_clique_1:  0.01967 x(0,0) + 0.01006 x(1,0) + 0.01721 x(2,0) + 0.01496 x(1,1) + 0.00274 x(2,1) + 0.00297 x(3,1) >= 1
cut_clique_2:  0.01339 x(0,0) + 0.00949 x(1,0) + 0.01171 x(2,0) + 0.00774 x(0,1) + 0.01558 x(1,1) + 0.01068 x(2,1) + 0.00729 x(3,1) >= 1
Bounds
 0 <= C <= 69
 7 <= x(0,0) <= 59
 0 <= y(0,1,0) <= 1
 0 <= y(1,0,0) <= 1
 -53 <= v(0,1,0) <= 46
 -61 <= v(1,0,0) <= 38
 -690 <= u(0,1,0)
 -690 <= u(1,0,0)
 0 <= y(0,2,0) <= 1
 0 <= y(2,0,0) <= 1
 -62 <= v(0,2,0) <= 41
 -56 <= v(2,0,0) <= 47
 -690 <= u(0,2,0)
 -690 <= u(2,0,0)
 0 <= y(0,3,0) <= 1
 0 <= y(3,0,0) <= 1
 -57 <= v(0,3,0) <= 52
 -63 <= v(3,0,0) <= 46
 -690 <= u(0,3,0)
 -690 <= u(3,0,0)
 6 <= x(1,0) <= 53
 0 <= y(1,2,0) <= 1
 0 <= y(2,1,0) <= 1
 -63 <= v(1,2,0) <= 35
 -49 <= v(2,1,0) <= 49
 -690 <= u(1,2,0)
 -690 <= u(2,1,0)
 0 <= y(1,3,0) <= 1
 0 <= y(3,1,0) <= 1
 -58 <= v(1,3,0) <= 46
 -56 <= v(3,1,0) <= 48
 -690 <= u(1,3,0)
 -690 <= u(3,1,0)
 11 <= x(2,0) <= 62
 0 <= y(2,3,0) <= 1
 0 <= y(3,2,0) <= 1
 -53 <= v(2,3,0) <= 55
 -65 <= v(3,2,0) <= 43
 -690 <= u(2,3,0)
 -690 <= u(3,2,0)
 4 <= x(3,0) <= 61
 0 <= x(0,1) <= 52
 0 <= y(0,1,1) <= 1
 0 <= y(1,0,1) <= 1
 -69 <= v(0,1,1) <= 30
 -46 <= v(1,0,1) <= 53
 -690 <= u(0,1,1)
 -690 <= u(1,0,1)
 0 <= y(0,2,1) <= 1
 0 <= y(2,0,1) <= 1
 -60 <= v(0,2,1) <= 43
 -59 <= v(2,0,1) <= 44
 -690 <= u(0,2,1)
 -690 <= u(2,0,1)
 0 <= y(0,3,1) <= 1
 0 <= y(3,0,1) <= 1
 -69 <= v(0,3,1) <= 40
 -52 <= v(3,0,1) <= 57
 -690 <= u(0,3,1)
 -690 <= u(3,0,1)
 13 <= x(1,1) <= 60
 0 <= y(1,2,1) <= 1
 0 <= y(2,1,1) <= 1
 -47 <= v(1,2,1) <= 51
 -69 <= v(2,1,1) <= 29
 -690 <= u(1,2,1)
 -690 <= u(2,1,1)
 0 <= y(1,3,1) <= 1
 0 <= y(3,1,1) <= 1
 -56 <= v(1,3,1) <= 48
 -62 <= v(3,1,1) <= 42
 -690 <= u(1,3,1)
 -690 <= u(3,1,1)
 0 <= x(2,1) <= 51
 0 <= y(2,3,1) <= 1
 0 <= y(3,2,1) <= 1
 -69 <= v(2,3,1) <= 39
 -53 <= v(3,2,1) <= 55
 -690 <= u(2,3,1)
 -690 <= u(3,2,1)
 7 <= x(3,1) <= 64
 15 <= x(0,2) <= 67
 0 <= y(0,1,2) <= 1
 0 <= y(1,0,2) <= 1
 -38 <= v(0,1,2) <= 61
 -69 <= v(1,0,2) <= 30
 -690 <= u(0,1,2)
 -690 <= u(1,0,2)
 0 <= y(0,2,2) <= 1
 0 <= y(2,0,2) <= 1
 -47 <= v(0,2,2) <= 56
 -60 <= v(2,0,2) <= 43
 -690 <= u(0,2,2)
 -690 <= u(2,0,2)
 0 <= y(0,3,2) <= 1
 0 <= y(3,0,2) <= 1
 -46 <= v(0,3,2) <= 63
 -69 <= v(3,0,2) <= 40
 -690 <= u(0,3,2)
 -690 <= u(3,0,2)
 0 <= x(1,2) <= 47
 0 <= y(1,2,2) <= 1
 0 <= y(2,1,2) <= 1
 -62 <= v(1,2,2) <= 36
 -44 <= v(2,1,2) <= 54
 -690 <= u(1,2,2)
 -690 <= u(2,1,2)
 0 <= y(1,3,2) <= 1
 0 <= y(3,1,2) <= 1
 -61 <= v(1,3,2) <= 43
 -53 <= v(3,1,2) <= 51
 -690 <= u(1,3,2)
 -690 <= u(3,1,2)
 9 <= x(2,2) <= 60
 0 <= y(2,3,2) <= 1
 0 <= y(3,2,2) <= 1
 -52 <= v(2,3,2) <= 56
 -62 <= v(3,2,2) <= 46
 -690 <= u(2,3,2)
 -690 <= u(3,2,2)
 0 <= x(3,2) <= 57
Integers
C x(0,0) y(0,1,0) y(1,0,0) v(0,1,0) v(1,0,0) u(0,1,0) u(1,0,0) y(0,2,0) y(2,0,0) 
v(0,2,0) v(2,0,0) u(0,2,0) u(2,0,0) y(0,3,0) y(3,0,0) v(0,3,0) v(3,0,0) u(0,3,0) u(3,0,0) 
x(1,0) y(1,2,0) y(2,1,0) v(1,2,0) v(2,1,0) u(1,2,0) u(2,1,0) y(1,3,0) y(3,1,0) v(1,3,0) 
v(3,1,0) u(1,3,0) u(3,1,0) x(2,0) y(2,3,0) y(3,2,0) v(2,3,0) v(3,2,0) u(2,3,0) u(3,2,0) 
x(3,0) x(0,1) y(0,1,1) y(1,0,1) v(0,1,1) v(1,0,1) u(0,1,1) u(1,0,1) y(0,2,1) y(2,0,1) 
v(0,2,1) v(2,0,1) u(0,2,1) u(2,0,1) y(0,3,1) y(3,0,1) v(0,3,1) v(3,0,1) u(0,3,1) u(3,0,1) 
x(1,1) y(1,2,1) y(2,1,1) v(1,2,1) v(2,1,1) u(1,2,1) u(2,1,1) y(1,3,1) y(3,1,1) v(1,3,1) 
v(3,1,1) u(1,3,1) u(3,1,1) x(2,1) y(2,3,1) y(3,2,1) v(2,3,1) v(3,2,1) u(2,3,1) u(3,2,1) 
x(3,1) x(0,2) y(0,1,2) y(1,0,2) v(0,1,2) v(1,0,2) u(0,1,2) u(1,0,2) y(0,2,2) y(2,0,2) 
v(0,2,2) v(2,0,2) u(0,2,2) u(2,0,2) y(0,3,2) y(3,0,2) v(0,3,2) v(3,0,2) u(0,3,2) u(3,0,2) 
x(1,2) y(1,2,2) y(2,1,2) v(1,2,2) v(2,1,2) u(1,2,2) u(2,1,2) y(1,3,2) y(3,1,2) v(1,3,2) 
v(3,1,2) u(1,3,2) u(3,1,2) x(2,2) y(2,3,2) y(3,2,2) v(2,3,2) v(3,2,2) u(2,3,2) u(3,2,2) 
x(3,2) 
End
